(set-logic HORN)
(set-info :source |
    Benchmark: 
    Output by Princess (http://www.philipp.ruemmer.org/princess.shtml)
|)
(declare-heap Heap Addr HeapObject
 defObj
 ((HeapObject 0) (mem 0) (list_node 0)) (
  (
   (O_Int (getInt Int))
   (O_UInt (getUInt Int))
   (O_Addr (getAddr Addr))
   (O_AddrRange (getAddrRange AddrRange))
   (O_mem (getmem mem))
   (O_list_node (getlist_node list_node))
   (defObj)
  )
  (
   (mem (|mem::val| Int))
  )
  (
   (list_node (|list_node::x| Int) (|list_node::mem| Addr) (|list_node::next| Addr))
  )
))
(declare-fun _Glue8 (Int Heap Addr Addr HeapObject) Bool)
(declare-fun _Glue14 (Addr Addr Heap HeapObject) Bool)
(declare-fun _Glue20 (Addr Addr Heap Int Addr Int HeapObject) Bool)
(declare-fun _Glue7 (Heap Addr Addr Addr HeapObject) Bool)
(declare-fun inv_main583_5 (Heap Addr Addr) Bool)
(declare-fun _Glue1 (Addr Addr Int Addr Heap HeapObject) Bool)
(declare-fun _Glue21 (Int Addr Int Heap Addr Addr HeapObject) Bool)
(declare-fun _Glue16 (Heap Addr Addr HeapObject) Bool)
(declare-fun _Glue3 (Heap Addr Addr Addr HeapObject) Bool)
(declare-fun _Glue19 (Int Heap Addr Addr HeapObject) Bool)
(declare-fun inv_main_11 (Heap Addr Addr) Bool)
(declare-fun _Glue9 (Addr Heap Int HeapObject) Bool)
(declare-fun Inv_Heap (Addr HeapObject) Bool)
(declare-fun _Glue5 (Heap Addr Addr Addr HeapObject) Bool)
(declare-fun _Glue18 (Heap Addr Addr HeapObject) Bool)
(assert (forall ((var0 Addr) (var1 Addr) (var2 Heap)) (or (not (inv_main583_5 var2 var1 var0)) (inv_main_11 var2 var1 var0))))
(assert (forall ((var0 AllocResHeap) (var1 Int) (var2 HeapObject) (var3 list_node) (var4 Addr) (var5 Addr) (var6 Heap)) (or (not (and (inv_main583_5 var6 var5 var4) (and (and (and (= (O_list_node var3) var2) (<= 0 (+ var1 (- 1)))) (<= 0 (+ (+ 10 (* (- 1) var1)) (- 1)))) (= (alloc var6 var2) var0)))) (Inv_Heap (newAddr var0) var2))))
(assert (forall ((var0 Int) (var1 AllocResHeap) (var2 HeapObject) (var3 list_node) (var4 Heap) (var5 Addr) (var6 Addr) (var7 Heap) (var8 HeapObject) (var9 Addr)) (or (not (and (and (Inv_Heap var9 var8) (inv_main583_5 var7 var6 var5)) (and (and (and (and (and (and (and (= (read var4 var9) var8) (valid var4 var9)) true) (= (O_list_node var3) var2)) (= (AllocResHeap var4 var9) var1)) (<= 0 (+ var0 (- 1)))) (<= 0 (+ (+ 10 (* (- 1) var0)) (- 1)))) (= (alloc var7 var2) var1)))) (_Glue1 var5 var6 var0 var9 var4 var8))))
(assert (forall ((var0 Int) (var1 AllocResHeap) (var2 HeapObject) (var3 list_node) (var4 HeapObject) (var5 Addr) (var6 Heap) (var7 Addr) (var8 Addr) (var9 Heap)) (or (not (and (inv_main583_5 var9 var8 var7) (and (and (and (and (and (and (= (read var6 var5) var4) (not (valid var6 var5))) (= (O_list_node var3) var2)) (= (AllocResHeap var6 var5) var1)) (<= 0 (+ var0 (- 1)))) (<= 0 (+ (+ 10 (* (- 1) var0)) (- 1)))) (= (alloc var9 var2) var1)))) (_Glue1 var7 var8 var0 var5 var6 var4))))
(assert (forall ((var0 HeapObject) (var1 list_node) (var2 Addr) (var3 Addr) (var4 list_node) (var5 HeapObject) (var6 Heap) (var7 Addr) (var8 Int) (var9 Addr) (var10 Addr)) (or (not (and (_Glue1 var10 var9 var8 var7 var6 var5) (and (and (and (and (and (= (getlist_node var5) var4) (= (|list_node::mem| var4) var3)) (= (|list_node::next| var4) var2)) (= (list_node var8 var3 var2) var1)) (= (O_list_node var1) var0)) (valid var6 var7)))) (Inv_Heap var7 var0))))
(assert (forall ((var0 HeapObject) (var1 list_node) (var2 Addr) (var3 Addr) (var4 list_node) (var5 Heap) (var6 HeapObject) (var7 Heap) (var8 Int) (var9 Addr) (var10 Addr) (var11 HeapObject) (var12 Addr)) (or (not (and (and (Inv_Heap var12 var11) (_Glue1 var10 var9 var8 var12 var7 var6)) (and (and (and (and (and (and (and (and (= (read var5 var12) var11) (valid var5 var12)) true) (= (getlist_node var6) var4)) (= (|list_node::mem| var4) var3)) (= (|list_node::next| var4) var2)) (= (list_node var8 var3 var2) var1)) (= (O_list_node var1) var0)) (= (write var7 var12 var0) var5)))) (_Glue3 var5 var10 var9 var12 var11))))
(assert (forall ((var0 HeapObject) (var1 list_node) (var2 Addr) (var3 Addr) (var4 list_node) (var5 HeapObject) (var6 Heap) (var7 HeapObject) (var8 Heap) (var9 Addr) (var10 Int) (var11 Addr) (var12 Addr)) (or (not (and (_Glue1 var12 var11 var10 var9 var8 var7) (and (and (and (and (and (and (and (= (read var6 var9) var5) (not (valid var6 var9))) (= (getlist_node var7) var4)) (= (|list_node::mem| var4) var3)) (= (|list_node::next| var4) var2)) (= (list_node var10 var3 var2) var1)) (= (O_list_node var1) var0)) (= (write var8 var9 var0) var6)))) (_Glue3 var6 var12 var11 var9 var5))))
(assert (forall ((var0 HeapObject) (var1 list_node) (var2 Addr) (var3 Int) (var4 list_node) (var5 HeapObject) (var6 Addr) (var7 Addr) (var8 Addr) (var9 Heap)) (or (not (and (_Glue3 var9 var8 var7 var6 var5) (and (and (and (and (and (= (getlist_node var5) var4) (= (|list_node::x| var4) var3)) (= (|list_node::next| var4) var2)) (= (list_node var3 var7 var2) var1)) (= (O_list_node var1) var0)) (valid var9 var6)))) (Inv_Heap var6 var0))))
(assert (forall ((var0 HeapObject) (var1 list_node) (var2 Addr) (var3 Int) (var4 list_node) (var5 Heap) (var6 HeapObject) (var7 Addr) (var8 Addr) (var9 Heap) (var10 HeapObject) (var11 Addr)) (or (not (and (and (Inv_Heap var11 var10) (_Glue3 var9 var8 var7 var11 var6)) (and (and (and (and (and (and (and (and (= (read var5 var11) var10) (valid var5 var11)) true) (= (getlist_node var6) var4)) (= (|list_node::x| var4) var3)) (= (|list_node::next| var4) var2)) (= (list_node var3 var7 var2) var1)) (= (O_list_node var1) var0)) (= (write var9 var11 var0) var5)))) (_Glue5 var5 var8 var7 var11 var10))))
(assert (forall ((var0 HeapObject) (var1 list_node) (var2 Addr) (var3 Int) (var4 list_node) (var5 HeapObject) (var6 Heap) (var7 HeapObject) (var8 Addr) (var9 Addr) (var10 Addr) (var11 Heap)) (or (not (and (_Glue3 var11 var10 var9 var8 var7) (and (and (and (and (and (and (and (= (read var6 var8) var5) (not (valid var6 var8))) (= (getlist_node var7) var4)) (= (|list_node::x| var4) var3)) (= (|list_node::next| var4) var2)) (= (list_node var3 var9 var2) var1)) (= (O_list_node var1) var0)) (= (write var11 var8 var0) var6)))) (_Glue5 var6 var10 var9 var8 var5))))
(assert (forall ((var0 HeapObject) (var1 list_node) (var2 Addr) (var3 Int) (var4 list_node) (var5 HeapObject) (var6 Addr) (var7 Addr) (var8 Addr) (var9 Heap)) (or (not (and (_Glue5 var9 var8 var7 var6 var5) (and (and (and (and (and (= (getlist_node var5) var4) (= (|list_node::x| var4) var3)) (= (|list_node::mem| var4) var2)) (= (list_node var3 var2 var8) var1)) (= (O_list_node var1) var0)) (valid var9 var6)))) (Inv_Heap var6 var0))))
(assert (forall ((var0 HeapObject) (var1 list_node) (var2 Addr) (var3 Int) (var4 list_node) (var5 Heap) (var6 HeapObject) (var7 Addr) (var8 Addr) (var9 Heap) (var10 HeapObject) (var11 Addr)) (or (not (and (and (Inv_Heap var11 var10) (_Glue5 var9 var11 var8 var7 var6)) (and (and (and (and (and (and (and (and (= (read var5 var11) var10) (valid var5 var11)) true) (= (getlist_node var6) var4)) (= (|list_node::x| var4) var3)) (= (|list_node::mem| var4) var2)) (= (list_node var3 var2 var11) var1)) (= (O_list_node var1) var0)) (= (write var9 var7 var0) var5)))) (_Glue7 var5 var11 var8 var7 var10))))
(assert (forall ((var0 HeapObject) (var1 list_node) (var2 Addr) (var3 Int) (var4 list_node) (var5 HeapObject) (var6 Heap) (var7 HeapObject) (var8 Addr) (var9 Addr) (var10 Addr) (var11 Heap)) (or (not (and (_Glue5 var11 var10 var9 var8 var7) (and (and (and (and (and (and (and (= (read var6 var10) var5) (not (valid var6 var10))) (= (getlist_node var7) var4)) (= (|list_node::x| var4) var3)) (= (|list_node::mem| var4) var2)) (= (list_node var3 var2 var10) var1)) (= (O_list_node var1) var0)) (= (write var11 var8 var0) var6)))) (_Glue7 var6 var10 var9 var8 var5))))
(assert (forall ((var0 HeapObject) (var1 list_node) (var2 Addr) (var3 Int) (var4 list_node) (var5 HeapObject) (var6 Addr) (var7 Addr) (var8 Addr) (var9 Heap)) (or (not (and (_Glue7 var9 var8 var7 var6 var5) (and (and (and (and (and (= (getlist_node var5) var4) (= (|list_node::x| var4) var3)) (= (|list_node::mem| var4) var2)) (= (list_node var3 var2 var6) var1)) (= (O_list_node var1) var0)) (valid var9 var8)))) (Inv_Heap var8 var0))))
(assert (forall ((var0 Heap) (var1 HeapObject) (var2 list_node) (var3 Addr) (var4 Int) (var5 list_node) (var6 HeapObject) (var7 Addr) (var8 Addr) (var9 Addr) (var10 Heap)) (or (not (and (_Glue7 var10 var9 var8 var7 var6) (and (and (and (and (and (= (getlist_node var6) var5) (= (|list_node::x| var5) var4)) (= (|list_node::mem| var5) var3)) (= (list_node var4 var3 var7) var2)) (= (O_list_node var2) var1)) (= (write var10 var9 var1) var0)))) (inv_main583_5 var0 var8 var9))))
(assert (forall ((var0 Int) (var1 mem) (var2 Addr) (var3 Heap) (var4 HeapObject) (var5 Addr)) (not (and (and (Inv_Heap var5 var4) (inv_main_11 var3 var5 var2)) (and (and (and (and (and (= (read var3 var5) var4) (= (getmem var4) var1)) (= (|mem::val| var1) var0)) (not (<= 0 (+ (+ 100 (* (- 1) var0)) (- 1))))) (not (= var0 100))) (valid var3 var5))))))
(assert (forall ((var0 Int) (var1 mem) (var2 HeapObject) (var3 Addr) (var4 Addr) (var5 Heap)) (not (and (inv_main_11 var5 var4 var3) (and (and (and (and (and (= (read var5 var4) var2) (= (getmem var2) var1)) (= (|mem::val| var1) var0)) (not (<= 0 (+ (+ 100 (* (- 1) var0)) (- 1))))) (not (= var0 100))) (not (valid var5 var4)))))))
(assert (forall ((var0 Addr) (var1 Addr) (var2 Heap)) (or (not (inv_main583_5 var2 var1 var0)) (inv_main583_5 var2 var1 var0))))
(assert (forall ((var0 Addr) (var1 Addr) (var2 Heap)) (or (not (inv_main583_5 var2 var1 var0)) (inv_main583_5 var2 var1 var0))))
(assert (forall ((var0 AllocResHeap) (var1 Heap) (var2 HeapObject) (var3 mem)) (or (not (and (and (= (O_mem var3) var2) (= (alloc var1 var2) var0)) (= emptyHeap var1))) (Inv_Heap (newAddr var0) var2))))
(assert (forall ((var0 Heap) (var1 HeapObject) (var2 mem) (var3 AllocResHeap) (var4 Addr) (var5 Heap) (var6 HeapObject) (var7 mem)) (or (not (and (and (and (and (and (and (= (O_mem var7) var6) (valid var5 var4)) (= (AllocResHeap var5 var4) var3)) (= (O_mem var2) var1)) (= (alloc var0 var1) var3)) (= (mem 0) var7)) (= emptyHeap var0))) (Inv_Heap var4 var6))))
(assert (forall ((var0 Heap) (var1 HeapObject) (var2 mem) (var3 AllocResHeap) (var4 Addr) (var5 Heap) (var6 HeapObject) (var7 mem) (var8 AllocResHeap) (var9 Heap) (var10 HeapObject) (var11 list_node)) (or (not (and (and (and (and (and (and (and (and (= (O_list_node var11) var10) (= (alloc var9 var10) var8)) (= (O_mem var7) var6)) (= (write var5 var4 var6) var9)) (= (AllocResHeap var5 var4) var3)) (= (O_mem var2) var1)) (= (alloc var0 var1) var3)) (= (mem 0) var7)) (= emptyHeap var0))) (Inv_Heap (newAddr var8) var10))))
(assert (forall ((var0 Heap) (var1 HeapObject) (var2 mem) (var3 AllocResHeap) (var4 Addr) (var5 Heap) (var6 HeapObject) (var7 mem) (var8 Heap) (var9 HeapObject) (var10 list_node) (var11 AllocResHeap) (var12 Heap) (var13 HeapObject) (var14 Addr)) (or (not (and (Inv_Heap var14 var13) (and (and (and (and (and (and (and (and (and (and (and (= (read var12 var14) var13) (valid var12 var14)) (= (AllocResHeap var12 var14) var11)) (= (O_list_node var10) var9)) (= (alloc var8 var9) var11)) (= (O_mem var7) var6)) (= (write var5 var4 var6) var8)) (= (AllocResHeap var5 var4) var3)) (= (O_mem var2) var1)) (= (alloc var0 var1) var3)) (= (mem 0) var7)) (= emptyHeap var0)))) (_Glue14 var14 var4 var12 var13))))
(assert (forall ((var0 Heap) (var1 HeapObject) (var2 mem) (var3 AllocResHeap) (var4 Addr) (var5 Heap) (var6 HeapObject) (var7 mem) (var8 Heap) (var9 HeapObject) (var10 list_node) (var11 AllocResHeap) (var12 HeapObject) (var13 Addr) (var14 Heap)) (or (not (and (and (and (and (and (and (and (and (and (and (and (= (read var14 var13) var12) (not (valid var14 var13))) (= (AllocResHeap var14 var13) var11)) (= (O_list_node var10) var9)) (= (alloc var8 var9) var11)) (= (O_mem var7) var6)) (= (write var5 var4 var6) var8)) (= (AllocResHeap var5 var4) var3)) (= (O_mem var2) var1)) (= (alloc var0 var1) var3)) (= (mem 0) var7)) (= emptyHeap var0))) (_Glue14 var13 var4 var14 var12))))
(assert (forall ((var0 HeapObject) (var1 list_node) (var2 Addr) (var3 Addr) (var4 list_node) (var5 HeapObject) (var6 Heap) (var7 Addr) (var8 Addr)) (or (not (and (_Glue14 var8 var7 var6 var5) (and (and (and (and (and (= (getlist_node var5) var4) (= (|list_node::mem| var4) var3)) (= (|list_node::next| var4) var2)) (= (list_node 1 var3 var2) var1)) (= (O_list_node var1) var0)) (valid var6 var8)))) (Inv_Heap var8 var0))))
(assert (forall ((var0 HeapObject) (var1 list_node) (var2 Addr) (var3 Addr) (var4 list_node) (var5 Heap) (var6 HeapObject) (var7 Heap) (var8 Addr) (var9 HeapObject) (var10 Addr)) (or (not (and (and (Inv_Heap var10 var9) (_Glue14 var10 var8 var7 var6)) (and (and (and (and (and (and (and (= (read var5 var10) var9) (valid var5 var10)) (= (getlist_node var6) var4)) (= (|list_node::mem| var4) var3)) (= (|list_node::next| var4) var2)) (= (list_node 1 var3 var2) var1)) (= (O_list_node var1) var0)) (= (write var7 var10 var0) var5)))) (_Glue16 var5 var10 var8 var9))))
(assert (forall ((var0 HeapObject) (var1 list_node) (var2 Addr) (var3 Addr) (var4 list_node) (var5 HeapObject) (var6 Heap) (var7 HeapObject) (var8 Heap) (var9 Addr) (var10 Addr)) (or (not (and (_Glue14 var10 var9 var8 var7) (and (and (and (and (and (and (and (= (read var6 var10) var5) (not (valid var6 var10))) (= (getlist_node var7) var4)) (= (|list_node::mem| var4) var3)) (= (|list_node::next| var4) var2)) (= (list_node 1 var3 var2) var1)) (= (O_list_node var1) var0)) (= (write var8 var10 var0) var6)))) (_Glue16 var6 var10 var9 var5))))
(assert (forall ((var0 HeapObject) (var1 list_node) (var2 Addr) (var3 Int) (var4 list_node) (var5 HeapObject) (var6 Addr) (var7 Addr) (var8 Heap)) (or (not (and (_Glue16 var8 var7 var6 var5) (and (and (and (and (and (= (getlist_node var5) var4) (= (|list_node::x| var4) var3)) (= (|list_node::next| var4) var2)) (= (list_node var3 var6 var2) var1)) (= (O_list_node var1) var0)) (valid var8 var7)))) (Inv_Heap var7 var0))))
(assert (forall ((var0 HeapObject) (var1 list_node) (var2 Addr) (var3 Int) (var4 list_node) (var5 Heap) (var6 HeapObject) (var7 Addr) (var8 Heap) (var9 HeapObject) (var10 Addr)) (or (not (and (and (Inv_Heap var10 var9) (_Glue16 var8 var10 var7 var6)) (and (and (and (and (and (and (and (= (read var5 var10) var9) (valid var5 var10)) (= (getlist_node var6) var4)) (= (|list_node::x| var4) var3)) (= (|list_node::next| var4) var2)) (= (list_node var3 var7 var2) var1)) (= (O_list_node var1) var0)) (= (write var8 var10 var0) var5)))) (_Glue18 var5 var10 var7 var9))))
(assert (forall ((var0 HeapObject) (var1 list_node) (var2 Addr) (var3 Int) (var4 list_node) (var5 HeapObject) (var6 Heap) (var7 HeapObject) (var8 Addr) (var9 Addr) (var10 Heap)) (or (not (and (_Glue16 var10 var9 var8 var7) (and (and (and (and (and (and (and (= (read var6 var9) var5) (not (valid var6 var9))) (= (getlist_node var7) var4)) (= (|list_node::x| var4) var3)) (= (|list_node::next| var4) var2)) (= (list_node var3 var8 var2) var1)) (= (O_list_node var1) var0)) (= (write var10 var9 var0) var6)))) (_Glue18 var6 var9 var8 var5))))
(assert (forall ((var0 HeapObject) (var1 list_node) (var2 Addr) (var3 Int) (var4 list_node) (var5 HeapObject) (var6 Addr) (var7 Addr) (var8 Heap)) (or (not (and (_Glue18 var8 var7 var6 var5) (and (and (and (and (and (= (getlist_node var5) var4) (= (|list_node::x| var4) var3)) (= (|list_node::mem| var4) var2)) (= (list_node var3 var2 var7) var1)) (= (O_list_node var1) var0)) (valid var8 var7)))) (Inv_Heap var7 var0))))
(assert (forall ((var0 Heap) (var1 HeapObject) (var2 list_node) (var3 Addr) (var4 Int) (var5 list_node) (var6 HeapObject) (var7 Addr) (var8 Addr) (var9 Heap)) (or (not (and (_Glue18 var9 var8 var7 var6) (and (and (and (and (and (= (getlist_node var6) var5) (= (|list_node::x| var5) var4)) (= (|list_node::mem| var5) var3)) (= (list_node var4 var3 var8) var2)) (= (O_list_node var2) var1)) (= (write var9 var8 var1) var0)))) (inv_main583_5 var0 var7 var8))))
(assert (forall ((var0 Int) (var1 Addr) (var2 Heap) (var3 HeapObject) (var4 Addr)) (or (not (and (and (Inv_Heap var4 var3) (inv_main_11 var2 var4 var1)) (and (and (not (<= 0 (+ 100 (* (- 1) var0)))) (= (read var2 var4) var3)) (valid var2 var4)))) (_Glue8 var0 var2 var4 var1 var3))))
(assert (forall ((var0 HeapObject) (var1 Int) (var2 Addr) (var3 Addr) (var4 Heap)) (or (not (and (inv_main_11 var4 var3 var2) (and (and (not (<= 0 (+ 100 (* (- 1) var1)))) (= (read var4 var3) var0)) (not (valid var4 var3))))) (_Glue8 var1 var4 var3 var2 var0))))
(assert (forall ((var0 Int) (var1 mem) (var2 HeapObject) (var3 Addr) (var4 Heap) (var5 Int) (var6 HeapObject) (var7 Addr)) (or (not (and (and (Inv_Heap var7 var6) (_Glue8 var5 var4 var3 var7 var2)) (and (and (and (and (= (getmem var2) var1) (= (|mem::val| var1) var0)) (<= 0 (+ (+ 100 (* (- 1) var0)) (- 1)))) (= (read var4 var7) var6)) (valid var4 var7)))) (_Glue9 var3 var4 var5 var6))))
(assert (forall ((var0 HeapObject) (var1 Int) (var2 mem) (var3 HeapObject) (var4 Addr) (var5 Addr) (var6 Heap) (var7 Int)) (or (not (and (_Glue8 var7 var6 var5 var4 var3) (and (and (and (and (= (getmem var3) var2) (= (|mem::val| var2) var1)) (<= 0 (+ (+ 100 (* (- 1) var1)) (- 1)))) (= (read var6 var4) var0)) (not (valid var6 var4))))) (_Glue9 var5 var6 var7 var0))))
(assert (forall ((var0 Int) (var1 mem) (var2 Int) (var3 Addr) (var4 list_node) (var5 HeapObject) (var6 Int) (var7 Heap) (var8 Addr) (var9 HeapObject) (var10 Addr)) (or (not (and (and (Inv_Heap var10 var9) (_Glue9 var8 var7 var6 var5)) (and (and (and (and (and (and (and (and (= (getlist_node var5) var4) (= (|list_node::next| var4) var3)) (= (|list_node::x| var4) var2)) (= (|list_node::mem| var4) var10)) (= (read var7 var10) var9)) (= (getmem var9) var1)) (= (|mem::val| var1) var0)) (= var6 (+ var0 var2))) (valid var7 var10)))) (inv_main_11 var7 var8 var3))))
(assert (forall ((var0 Int) (var1 mem) (var2 HeapObject) (var3 Addr) (var4 Int) (var5 Addr) (var6 list_node) (var7 HeapObject) (var8 Int) (var9 Heap) (var10 Addr)) (or (not (and (_Glue9 var10 var9 var8 var7) (and (and (and (and (and (and (and (and (= (getlist_node var7) var6) (= (|list_node::next| var6) var5)) (= (|list_node::x| var6) var4)) (= (|list_node::mem| var6) var3)) (= (read var9 var3) var2)) (= (getmem var2) var1)) (= (|mem::val| var1) var0)) (= var8 (+ var0 var4))) (not (valid var9 var3))))) (inv_main_11 var9 var10 var5))))
(assert (forall ((var0 Int) (var1 Addr) (var2 Heap) (var3 HeapObject) (var4 Addr)) (or (not (and (and (Inv_Heap var4 var3) (inv_main_11 var2 var1 var4)) (and (and (<= 0 (+ 100 (* (- 1) var0))) (= (read var2 var4) var3)) (valid var2 var4)))) (_Glue19 var0 var2 var1 var4 var3))))
(assert (forall ((var0 HeapObject) (var1 Int) (var2 Addr) (var3 Addr) (var4 Heap)) (or (not (and (inv_main_11 var4 var3 var2) (and (and (<= 0 (+ 100 (* (- 1) var1))) (= (read var4 var2) var0)) (not (valid var4 var2))))) (_Glue19 var1 var4 var3 var2 var0))))
(assert (forall ((var0 Int) (var1 Addr) (var2 list_node) (var3 HeapObject) (var4 Addr) (var5 Heap) (var6 Int) (var7 HeapObject) (var8 Addr)) (or (not (and (and (Inv_Heap var8 var7) (_Glue19 var6 var5 var8 var4 var3)) (and (and (and (and (= (getlist_node var3) var2) (= (|list_node::mem| var2) var1)) (= (|list_node::x| var2) var0)) (= (read var5 var8) var7)) (valid var5 var8)))) (_Glue20 var4 var8 var5 var6 var1 var0 var7))))
(assert (forall ((var0 HeapObject) (var1 Int) (var2 Addr) (var3 list_node) (var4 HeapObject) (var5 Addr) (var6 Addr) (var7 Heap) (var8 Int)) (or (not (and (_Glue19 var8 var7 var6 var5 var4) (and (and (and (and (= (getlist_node var4) var3) (= (|list_node::mem| var3) var2)) (= (|list_node::x| var3) var1)) (= (read var7 var6) var0)) (not (valid var7 var6))))) (_Glue20 var5 var6 var7 var8 var2 var1 var0))))
(assert (forall ((var0 Int) (var1 mem) (var2 HeapObject) (var3 Int) (var4 Int) (var5 Heap) (var6 Addr) (var7 Addr) (var8 HeapObject) (var9 Addr)) (or (not (and (and (Inv_Heap var9 var8) (_Glue20 var7 var6 var5 var4 var9 var3 var2)) (and (and (and (and (= (getmem var2) var1) (= (|mem::val| var1) var0)) (<= 0 (+ (+ 100 (* (- 1) var0)) (- 1)))) (= (read var5 var9) var8)) (valid var5 var9)))) (_Glue21 var3 var9 var4 var5 var6 var7 var8))))
(assert (forall ((var0 HeapObject) (var1 Int) (var2 mem) (var3 HeapObject) (var4 Int) (var5 Addr) (var6 Int) (var7 Heap) (var8 Addr) (var9 Addr)) (or (not (and (_Glue20 var9 var8 var7 var6 var5 var4 var3) (and (and (and (and (= (getmem var3) var2) (= (|mem::val| var2) var1)) (<= 0 (+ (+ 100 (* (- 1) var1)) (- 1)))) (= (read var7 var5) var0)) (not (valid var7 var5))))) (_Glue21 var4 var5 var6 var7 var8 var9 var0))))
(assert (forall ((var0 HeapObject) (var1 mem) (var2 Int) (var3 mem) (var4 HeapObject) (var5 Addr) (var6 Addr) (var7 Heap) (var8 Int) (var9 Addr) (var10 Int)) (or (not (and (_Glue21 var10 var9 var8 var7 var6 var5 var4) (and (and (and (and (and (= (getmem var4) var3) (= (|mem::val| var3) var2)) (= var8 (+ var2 var10))) (= (mem (+ var2 var10)) var1)) (= (O_mem var1) var0)) (valid var7 var9)))) (Inv_Heap var9 var0))))
(assert (forall ((var0 HeapObject) (var1 mem) (var2 Int) (var3 mem) (var4 Addr) (var5 list_node) (var6 Heap) (var7 HeapObject) (var8 Addr) (var9 Heap) (var10 Int) (var11 Addr) (var12 Int) (var13 HeapObject) (var14 Addr)) (or (not (and (and (Inv_Heap var14 var13) (_Glue21 var12 var11 var10 var9 var8 var14 var7)) (and (and (and (and (and (and (and (and (and (and (= (read var6 var14) var13) (= (getlist_node var13) var5)) (= (|list_node::next| var5) var4)) (valid var6 var14)) true) (= (getmem var7) var3)) (= (|mem::val| var3) var2)) (= var10 (+ var2 var12))) (= (mem (+ var2 var12)) var1)) (= (O_mem var1) var0)) (= (write var9 var11 var0) var6)))) (inv_main_11 var6 var8 var4))))
(assert (forall ((var0 HeapObject) (var1 mem) (var2 Int) (var3 mem) (var4 Addr) (var5 list_node) (var6 HeapObject) (var7 Heap) (var8 HeapObject) (var9 Addr) (var10 Addr) (var11 Heap) (var12 Int) (var13 Addr) (var14 Int)) (or (not (and (_Glue21 var14 var13 var12 var11 var10 var9 var8) (and (and (and (and (and (and (and (and (and (= (read var7 var9) var6) (= (getlist_node var6) var5)) (= (|list_node::next| var5) var4)) (not (valid var7 var9))) (= (getmem var8) var3)) (= (|mem::val| var3) var2)) (= var12 (+ var2 var14))) (= (mem (+ var2 var14)) var1)) (= (O_mem var1) var0)) (= (write var11 var13 var0) var7)))) (inv_main_11 var7 var10 var4))))
(check-sat)
